NAME : djb2036
COMMENT : Bonn VLSI data set with 2036 points
COMMENT : Uni Bonn, Research Institute for Discrete Math
COMMENT : Contributed by Andre Rohe
TYPE : TSP
DIMENSION : 2036
EDGE_WEIGHT_TYPE : EUC_2D
NODE_COORD_SECTION
1 0 100
2 0 101
3 0 106
4 0 111
5 0 112
6 0 113
7 0 124
8 0 125
9 0 126
10 0 127
11 0 128
12 0 132
13 0 137
14 0 138
15 0 16
16 0 162
17 0 167
18 0 172
19 0 176
20 0 177
21 0 182
22 0 187
23 0 192
24 0 197
25 0 202
26 0 207
27 0 21
28 0 212
29 0 217
30 0 221
31 0 222
32 0 227
33 0 232
34 0 237
35 0 242
36 0 247
37 0 26
38 0 27
39 0 31
40 0 41
41 0 46
42 0 51
43 0 56
44 0 6
45 0 61
46 0 62
47 0 66
48 0 71
49 0 76
50 0 81
51 0 86
52 0 91
53 0 96
54 2 11
55 2 111
56 2 123
57 2 125
58 2 13
59 2 132
60 2 134
61 2 135
62 2 137
63 2 139
64 2 14
65 2 140
66 2 142
67 2 145
68 2 146
69 2 147
70 2 149
71 2 151
72 2 152
73 2 154
74 2 156
75 2 157
76 2 158
77 2 16
78 2 161
79 2 163
80 2 165
81 2 168
82 2 174
83 2 175
84 2 176
85 2 177
86 2 18
87 2 19
88 2 200
89 2 201
90 2 207
91 2 208
92 2 21
93 2 214
94 2 215
95 2 219
96 2 225
97 2 226
98 2 227
99 2 228
100 2 23
101 2 231
102 2 232
103 2 233
104 2 235
105 2 237
106 2 238
107 2 239
108 2 24
109 2 240
110 2 26
111 2 27
112 2 32
113 2 34
114 2 35
115 2 37
116 2 38
117 2 39
118 2 42
119 2 47
120 2 49
121 2 56
122 2 58
123 2 59
124 2 62
125 2 64
126 2 67
127 2 9
128 2 99
129 5 105
130 5 109
131 5 112
132 5 116
133 5 122
134 5 124
135 5 128
136 5 130
137 5 134
138 5 136
139 5 139
140 5 142
141 5 153
142 5 156
143 5 162
144 5 164
145 5 166
146 5 18
147 5 20
148 5 23
149 5 237
150 5 244
151 5 248
152 5 26
153 5 28
154 5 31
155 5 34
156 5 36
157 5 48
158 5 52
159 5 54
160 5 58
161 5 60
162 5 63
163 5 67
164 8 149
165 9 102
166 9 105
167 9 109
168 9 125
169 9 132
170 9 137
171 9 140
172 9 149
173 9 154
174 9 16
175 9 167
176 9 21
177 9 218
178 9 235
179 9 24
180 9 32
181 9 46
182 9 56
183 9 61
184 10 103
185 10 107
186 10 111
187 10 123
188 10 125
189 10 132
190 10 135
191 10 137
192 10 140
193 10 150
194 10 152
195 10 154
196 10 16
197 10 161
198 10 163
199 10 165
200 10 19
201 10 21
202 10 235
203 10 24
204 10 27
205 10 32
206 10 35
207 10 46
208 10 56
209 10 59
210 10 61
211 11 111
212 11 123
213 11 125
214 11 129
215 11 132
216 11 135
217 11 137
218 11 140
219 11 149
220 11 152
221 11 154
222 11 16
223 11 161
224 11 163
225 11 165
226 11 179
227 11 19
228 11 21
229 11 235
230 11 24
231 11 242
232 11 27
233 11 29
234 11 32
235 11 35
236 11 46
237 11 5
238 11 51
239 11 56
240 11 59
241 11 61
242 11 97
243 12 113
244 12 125
245 12 245
246 15 104
247 15 108
248 15 112
249 15 116
250 15 122
251 15 124
252 15 128
253 15 130
254 15 136
255 15 151
256 15 153
257 15 162
258 15 164
259 15 166
260 15 20
261 15 248
262 15 28
263 15 36
264 15 52
265 15 54
266 15 60
267 17 14
268 17 146
269 17 147
270 17 158
271 17 168
272 17 177
273 17 200
274 17 208
275 17 214
276 17 219
277 17 228
278 17 232
279 17 233
280 17 239
281 17 240
282 17 38
283 17 39
284 17 42
285 17 99
286 18 126
287 18 127
288 18 174
289 18 176
290 18 199
291 18 207
292 18 215
293 18 225
294 18 227
295 25 10
296 25 101
297 25 102
298 25 105
299 25 106
300 25 107
301 25 112
302 25 114
303 25 14
304 25 143
305 25 144
306 25 145
307 25 146
308 25 148
309 25 150
310 25 151
311 25 153
312 25 154
313 25 155
314 25 156
315 25 158
316 25 16
317 25 161
318 25 162
319 25 165
320 25 17
321 25 171
322 25 172
323 25 173
324 25 174
325 25 177
326 25 183
327 25 184
328 25 185
329 25 186
330 25 189
331 25 19
332 25 195
333 25 196
334 25 197
335 25 198
336 25 20
337 25 201
338 25 207
339 25 208
340 25 209
341 25 210
342 25 212
343 25 216
344 25 218
345 25 22
346 25 222
347 25 224
348 25 225
349 25 229
350 25 23
351 25 231
352 25 232
353 25 234
354 25 238
355 25 245
356 25 25
357 25 26
358 25 28
359 25 29
360 25 30
361 25 31
362 25 33
363 25 34
364 25 35
365 25 36
366 25 39
367 25 56
368 25 58
369 25 60
370 25 62
371 25 65
372 25 69
373 25 75
374 25 77
375 25 81
376 25 83
377 25 84
378 25 87
379 25 91
380 25 93
381 25 96
382 25 97
383 26 99
384 28 118
385 28 122
386 28 126
387 28 130
388 28 137
389 28 141
390 28 150
391 28 153
392 28 159
393 28 16
394 28 19
395 28 215
396 28 217
397 28 221
398 28 224
399 28 228
400 28 231
401 28 233
402 28 237
403 28 239
404 28 25
405 28 52
406 28 57
407 28 61
408 28 65
409 28 67
410 28 70
411 28 83
412 28 85
413 28 90
414 28 92
415 28 94
416 31 20
417 31 26
418 31 86
419 32 123
420 32 126
421 32 130
422 32 134
423 32 137
424 32 14
425 32 141
426 32 148
427 32 151
428 32 164
429 32 17
430 32 176
431 32 188
432 32 20
433 32 200
434 32 212
435 32 218
436 32 222
437 32 225
438 32 229
439 32 23
440 32 234
441 32 26
442 32 55
443 32 81
444 32 86
445 33 124
446 33 128
447 33 135
448 33 139
449 33 14
450 33 148
451 33 151
452 33 158
453 33 17
454 33 21
455 33 212
456 33 216
457 33 218
458 33 222
459 33 225
460 33 229
461 33 23
462 33 232
463 33 234
464 33 238
465 33 27
466 33 55
467 33 69
468 33 81
469 33 84
470 33 86
471 33 91
472 33 93
473 34 116
474 34 14
475 34 148
476 34 151
477 34 158
478 34 17
479 34 20
480 34 212
481 34 216
482 34 218
483 34 222
484 34 225
485 34 229
486 34 23
487 34 232
488 34 234
489 34 238
490 34 26
491 34 45
492 34 50
493 34 55
494 34 66
495 34 69
496 34 71
497 34 81
498 34 84
499 34 86
500 34 91
501 34 93
502 35 119
503 35 212
504 35 218
505 35 225
506 35 234
507 35 86
508 38 122
509 38 125
510 38 129
511 38 136
512 38 140
513 38 159
514 38 215
515 38 217
516 38 22
517 38 221
518 38 228
519 38 233
520 38 237
521 38 239
522 38 28
523 38 67
524 38 70
525 38 85
526 38 92
527 38 94
528 40 102
529 40 105
530 40 112
531 40 114
532 40 144
533 40 145
534 40 146
535 40 155
536 40 156
537 40 161
538 40 165
539 40 174
540 40 177
541 40 186
542 40 189
543 40 198
544 40 201
545 40 210
546 40 30
547 40 31
548 40 34
549 40 35
550 40 36
551 40 39
552 40 96
553 41 10
554 41 100
555 41 106
556 41 171
557 41 173
558 41 183
559 41 185
560 41 195
561 41 197
562 41 207
563 41 209
564 41 213
565 41 214
566 41 219
567 41 220
568 41 226
569 41 227
570 41 235
571 41 236
572 41 245
573 41 88
574 41 89
575 48 102
576 48 103
577 48 107
578 48 108
579 48 113
580 48 122
581 48 123
582 48 127
583 48 128
584 48 131
585 48 132
586 48 133
587 48 138
588 48 145
589 48 146
590 48 150
591 48 151
592 48 155
593 48 156
594 48 161
595 48 17
596 48 172
597 48 184
598 48 185
599 48 186
600 48 19
601 48 194
602 48 20
603 48 200
604 48 201
605 48 202
606 48 203
607 48 206
608 48 21
609 48 212
610 48 213
611 48 214
612 48 215
613 48 234
614 48 24
615 48 25
616 48 27
617 48 28
618 48 29
619 48 41
620 48 42
621 48 45
622 48 47
623 48 52
624 48 6
625 48 61
626 48 69
627 48 70
628 48 74
629 48 75
630 48 78
631 48 79
632 48 80
633 48 85
634 48 87
635 48 97
636 48 98
637 49 100
638 49 125
639 49 148
640 49 72
641 51 170
642 51 172
643 51 175
644 51 177
645 51 180
646 51 182
647 51 189
648 51 191
649 51 218
650 51 220
651 51 247
652 51 35
653 51 39
654 51 57
655 51 59
656 51 62
657 51 64
658 51 66
659 51 90
660 51 92
661 51 95
662 54 49
663 55 17
664 55 193
665 55 205
666 55 32
667 55 35
668 55 39
669 56 115
670 56 163
671 56 171
672 56 233
673 56 33
674 56 37
675 56 61
676 57 12
677 57 140
678 57 169
679 57 171
680 57 174
681 57 179
682 57 188
683 57 19
684 57 217
685 57 222
686 57 233
687 57 56
688 57 61
689 57 63
690 57 89
691 57 94
692 58 244
693 61 170
694 61 172
695 61 175
696 61 177
697 61 180
698 61 182
699 61 189
700 61 191
701 61 218
702 61 220
703 61 247
704 61 34
705 61 38
706 61 57
707 61 59
708 61 62
709 61 64
710 61 66
711 61 90
712 61 92
713 61 95
714 63 103
715 63 113
716 63 122
717 63 128
718 63 131
719 63 138
720 63 145
721 63 151
722 63 161
723 63 185
724 63 186
725 63 194
726 63 203
727 63 206
728 63 215
729 63 24
730 63 28
731 63 29
732 63 42
733 63 45
734 63 47
735 63 6
736 63 69
737 63 75
738 63 78
739 63 85
740 63 87
741 63 97
742 64 101
743 64 107
744 64 126
745 64 132
746 64 149
747 64 155
748 64 200
749 64 202
750 64 212
751 64 214
752 64 73
753 64 79
754 71 104
755 71 105
756 71 107
757 71 119
758 71 120
759 71 121
760 71 122
761 71 154
762 71 155
763 71 159
764 71 160
765 71 164
766 71 165
767 71 170
768 71 179
769 71 18
770 71 183
771 71 185
772 71 203
773 71 206
774 71 207
775 71 208
776 71 210
777 71 234
778 71 245
779 71 28
780 71 31
781 71 34
782 71 35
783 71 39
784 71 40
785 71 43
786 71 44
787 71 45
788 71 50
789 71 52
790 71 55
791 71 93
792 71 94
793 72 108
794 72 157
795 72 204
796 72 37
797 74 10
798 74 14
799 74 146
800 74 148
801 74 150
802 74 152
803 74 179
804 74 182
805 74 185
806 74 187
807 74 189
808 74 211
809 74 215
810 74 221
811 74 224
812 74 226
813 74 229
814 74 231
815 74 29
816 74 55
817 74 59
818 74 63
819 74 65
820 74 68
821 74 7
822 74 70
823 78 138
824 78 183
825 79 17
826 79 172
827 79 178
828 79 183
829 79 210
830 79 233
831 79 28
832 79 54
833 80 138
834 80 145
835 80 147
836 80 149
837 80 151
838 80 17
839 80 178
840 80 181
841 80 183
842 80 186
843 80 191
844 80 210
845 80 222
846 80 225
847 80 228
848 80 233
849 80 28
850 80 5
851 80 54
852 80 57
853 80 62
854 80 67
855 80 72
856 80 8
857 81 212
858 84 146
859 84 148
860 84 150
861 84 152
862 84 179
863 84 182
864 84 187
865 84 189
866 84 211
867 84 215
868 84 221
869 84 226
870 84 229
871 84 231
872 84 29
873 84 55
874 84 63
875 84 65
876 84 68
877 84 70
878 85 253
879 86 119
880 86 121
881 86 154
882 86 160
883 86 170
884 86 207
885 86 208
886 86 245
887 86 31
888 86 34
889 86 40
890 86 43
891 86 50
892 86 52
893 86 93
894 87 103
895 87 109
896 87 122
897 87 158
898 87 164
899 87 204
900 87 38
901 87 44
902 87 92
903 94 10
904 94 12
905 94 124
906 94 128
907 94 13
908 94 137
909 94 139
910 94 140
911 94 144
912 94 146
913 94 15
914 94 150
915 94 154
916 94 155
917 94 159
918 94 16
919 94 160
920 94 163
921 94 164
922 94 165
923 94 170
924 94 172
925 94 174
926 94 176
927 94 179
928 94 18
929 94 181
930 94 183
931 94 185
932 94 186
933 94 188
934 94 19
935 94 190
936 94 191
937 94 193
938 94 194
939 94 195
940 94 196
941 94 198
942 94 20
943 94 200
944 94 202
945 94 21
946 94 214
947 94 216
948 94 23
949 94 245
950 94 247
951 94 25
952 94 26
953 94 27
954 94 29
955 94 30
956 94 32
957 94 34
958 94 36
959 94 37
960 94 41
961 94 43
962 94 45
963 94 46
964 94 48
965 94 50
966 94 51
967 94 62
968 94 64
969 94 82
970 95 157
971 97 131
972 97 135
973 97 139
974 97 143
975 97 146
976 97 176
977 97 18
978 97 181
979 97 185
980 97 187
981 97 189
982 97 199
983 97 202
984 97 206
985 97 211
986 97 216
987 97 220
988 97 224
989 97 229
990 97 235
991 97 239
992 97 25
993 97 33
994 97 36
995 97 40
996 97 42
997 97 54
998 97 56
999 97 6
1000 97 67
1001 97 73
1002 97 8
1003 97 81
1004 97 83
1005 97 87
1006 97 89
1007 97 91
1008 100 0
1009 100 10
1010 100 13
1011 100 203
1012 100 221
1013 100 43
1014 100 46
1015 101 0
1016 101 10
1017 101 128
1018 101 13
1019 101 137
1020 101 140
1021 101 144
1022 101 16
1023 101 174
1024 101 179
1025 101 183
1026 101 200
1027 101 214
1028 101 23
1029 101 232
1030 101 235
1031 101 239
1032 101 34
1033 101 37
1034 101 43
1035 101 46
1036 102 0
1037 102 11
1038 102 128
1039 102 137
1040 102 14
1041 102 140
1042 102 144
1043 102 16
1044 102 174
1045 102 179
1046 102 183
1047 102 186
1048 102 188
1049 102 198
1050 102 200
1051 102 214
1052 102 23
1053 102 233
1054 102 237
1055 102 32
1056 102 34
1057 102 37
1058 102 41
1059 102 44
1060 102 47
1061 102 82
1062 103 0
1063 103 10
1064 103 122
1065 103 128
1066 103 13
1067 103 137
1068 103 140
1069 103 144
1070 103 149
1071 103 16
1072 103 174
1073 103 179
1074 103 183
1075 103 186
1076 103 188
1077 103 198
1078 103 200
1079 103 214
1080 103 23
1081 103 241
1082 103 32
1083 103 34
1084 103 37
1085 103 41
1086 103 43
1087 103 46
1088 103 5
1089 103 53
1090 103 58
1091 103 66
1092 103 82
1093 103 88
1094 104 0
1095 104 128
1096 104 132
1097 104 140
1098 104 217
1099 104 37
1100 104 69
1101 104 84
1102 105 0
1103 106 0
1104 107 0
1105 107 12
1106 107 131
1107 107 135
1108 107 143
1109 107 15
1110 107 187
1111 107 189
1112 107 199
1113 107 206
1114 107 211
1115 107 220
1116 107 224
1117 107 229
1118 107 234
1119 107 238
1120 107 33
1121 107 40
1122 107 42
1123 107 45
1124 107 48
1125 107 54
1126 107 56
1127 107 6
1128 107 67
1129 107 8
1130 107 83
1131 107 87
1132 107 89
1133 107 91
1134 108 0
1135 109 0
1136 109 124
1137 109 154
1138 109 160
1139 109 163
1140 109 170
1141 109 172
1142 109 191
1143 109 194
1144 109 195
1145 109 196
1146 109 20
1147 109 21
1148 109 27
1149 109 30
1150 109 50
1151 110 129
1152 110 130
1153 110 141
1154 110 142
1155 110 150
1156 110 158
1157 110 164
1158 110 38
1159 110 39
1160 112 253
1161 117 10
1162 117 12
1163 117 130
1164 117 131
1165 117 132
1166 117 14
1167 117 144
1168 117 145
1169 117 147
1170 117 149
1171 117 151
1172 117 154
1173 117 155
1174 117 159
1175 117 16
1176 117 160
1177 117 163
1178 117 164
1179 117 165
1180 117 170
1181 117 172
1182 117 177
1183 117 178
1184 117 18
1185 117 182
1186 117 183
1187 117 186
1188 117 187
1189 117 188
1190 117 193
1191 117 195
1192 117 197
1193 117 209
1194 117 210
1195 117 211
1196 117 212
1197 117 214
1198 117 216
1199 117 23
1200 117 24
1201 117 245
1202 117 247
1203 117 26
1204 117 28
1205 117 29
1206 117 31
1207 117 37
1208 117 39
1209 117 41
1210 117 43
1211 117 44
1212 117 69
1213 117 70
1214 117 74
1215 117 75
1216 117 78
1217 117 79
1218 117 80
1219 117 85
1220 117 87
1221 117 92
1222 118 157
1223 118 180
1224 118 72
1225 120 103
1226 120 107
1227 120 109
1228 120 11
1229 120 114
1230 120 120
1231 120 124
1232 120 128
1233 120 137
1234 120 14
1235 120 141
1236 120 149
1237 120 151
1238 120 175
1239 120 19
1240 120 198
1241 120 202
1242 120 208
1243 120 21
1244 120 215
1245 120 217
1246 120 221
1247 120 226
1248 120 231
1249 120 235
1250 120 239
1251 120 28
1252 120 30
1253 120 32
1254 120 45
1255 120 50
1256 120 58
1257 120 64
1258 120 66
1259 120 7
1260 120 98
1261 123 218
1262 123 41
1263 123 46
1264 123 52
1265 123 60
1266 123 95
1267 124 12
1268 124 121
1269 124 124
1270 124 128
1271 124 134
1272 124 137
1273 124 141
1274 124 147
1275 124 232
1276 124 235
1277 124 239
1278 124 26
1279 124 41
1280 124 46
1281 124 52
1282 124 60
1283 125 10
1284 125 12
1285 125 122
1286 125 126
1287 125 135
1288 125 139
1289 125 147
1290 125 150
1291 125 18
1292 125 197
1293 125 214
1294 125 216
1295 125 233
1296 125 237
1297 125 26
1298 125 29
1299 125 31
1300 125 42
1301 125 44
1302 125 46
1303 125 52
1304 125 60
1305 126 10
1306 126 106
1307 126 12
1308 126 147
1309 126 150
1310 126 174
1311 126 18
1312 126 197
1313 126 20
1314 126 214
1315 126 216
1316 126 229
1317 126 241
1318 126 26
1319 126 29
1320 126 31
1321 126 33
1322 126 41
1323 126 44
1324 126 46
1325 126 5
1326 126 53
1327 126 61
1328 126 63
1329 126 91
1330 127 111
1331 127 199
1332 127 46
1333 130 103
1334 130 107
1335 130 109
1336 130 11
1337 130 114
1338 130 120
1339 130 123
1340 130 127
1341 130 136
1342 130 140
1343 130 151
1344 130 175
1345 130 19
1346 130 198
1347 130 202
1348 130 208
1349 130 21
1350 130 215
1351 130 217
1352 130 221
1353 130 226
1354 130 234
1355 130 238
1356 130 30
1357 130 32
1358 130 43
1359 130 45
1360 130 64
1361 130 66
1362 130 98
1363 132 131
1364 132 132
1365 132 145
1366 132 154
1367 132 16
1368 132 160
1369 132 163
1370 132 170
1371 132 172
1372 132 177
1373 132 183
1374 132 186
1375 132 193
1376 132 195
1377 132 210
1378 132 211
1379 132 212
1380 132 24
1381 132 69
1382 132 75
1383 132 78
1384 132 85
1385 132 87
1386 133 158
1387 133 164
1388 133 181
1389 133 187
1390 133 47
1391 133 48
1392 133 50
1393 133 51
1394 133 52
1395 133 55
1396 133 56
1397 133 58
1398 133 59
1399 133 60
1400 133 73
1401 133 79
1402 133 92
1403 138 253
1404 140 10
1405 140 109
1406 140 111
1407 140 12
1408 140 13
1409 140 130
1410 140 132
1411 140 135
1412 140 136
1413 140 14
1414 140 140
1415 140 141
1416 140 144
1417 140 145
1418 140 146
1419 140 15
1420 140 151
1421 140 153
1422 140 156
1423 140 157
1424 140 16
1425 140 161
1426 140 162
1427 140 165
1428 140 166
1429 140 167
1430 140 172
1431 140 174
1432 140 177
1433 140 179
1434 140 18
1435 140 181
1436 140 183
1437 140 185
1438 140 187
1439 140 189
1440 140 191
1441 140 194
1442 140 20
1443 140 21
1444 140 220
1445 140 221
1446 140 222
1447 140 223
1448 140 227
1449 140 233
1450 140 239
1451 140 24
1452 140 241
1453 140 242
1454 140 243
1455 140 245
1456 140 26
1457 140 29
1458 140 31
1459 140 33
1460 140 35
1461 140 37
1462 140 39
1463 140 41
1464 140 43
1465 140 45
1466 140 47
1467 140 49
1468 140 51
1469 140 53
1470 140 55
1471 140 57
1472 140 59
1473 140 6
1474 140 60
1475 140 65
1476 140 70
1477 140 71
1478 140 75
1479 140 76
1480 140 79
1481 140 80
1482 140 81
1483 140 86
1484 140 88
1485 140 90
1486 140 92
1487 140 94
1488 140 96
1489 140 97
1490 141 138
1491 141 159
1492 141 228
1493 141 73
1494 143 102
1495 143 108
1496 143 111
1497 143 114
1498 143 12
1499 143 121
1500 143 129
1501 143 131
1502 143 133
1503 143 178
1504 143 182
1505 143 186
1506 143 190
1507 143 194
1508 143 196
1509 143 21
1510 143 239
1511 143 246
1512 143 25
1513 143 30
1514 143 34
1515 143 38
1516 143 42
1517 143 46
1518 143 50
1519 143 54
1520 143 61
1521 143 91
1522 143 93
1523 143 96
1524 143 98
1525 146 18
1526 146 57
1527 146 62
1528 147 10
1529 147 109
1530 147 176
1531 147 18
1532 147 21
1533 147 23
1534 147 28
1535 147 57
1536 147 94
1537 148 10
1538 148 109
1539 148 130
1540 148 132
1541 148 176
1542 148 19
1543 148 23
1544 148 238
1545 148 245
1546 148 28
1547 148 58
1548 148 60
1549 148 90
1550 148 92
1551 148 94
1552 148 97
1553 149 10
1554 149 109
1555 149 112
1556 149 130
1557 149 132
1558 149 176
1559 149 18
1560 149 195
1561 149 199
1562 149 23
1563 149 238
1564 149 245
1565 149 28
1566 149 57
1567 149 60
1568 149 90
1569 149 92
1570 149 94
1571 149 97
1572 150 117
1573 150 99
1574 153 102
1575 153 108
1576 153 131
1577 153 133
1578 153 196
1579 153 20
1580 153 239
1581 153 246
1582 153 59
1583 153 61
1584 153 91
1585 153 93
1586 153 98
1587 155 135
1588 155 14
1589 155 141
1590 155 144
1591 155 15
1592 155 151
1593 155 153
1594 155 156
1595 155 16
1596 155 162
1597 155 165
1598 155 172
1599 155 174
1600 155 220
1601 155 222
1602 155 229
1603 155 233
1604 155 242
1605 155 243
1606 155 6
1607 155 70
1608 155 76
1609 155 79
1610 155 86
1611 155 88
1612 156 139
1613 156 145
1614 156 160
1615 156 166
1616 156 219
1617 156 221
1618 156 230
1619 156 234
1620 156 74
1621 156 80
1622 163 10
1623 163 11
1624 163 115
1625 163 117
1626 163 119
1627 163 12
1628 163 120
1629 163 122
1630 163 123
1631 163 125
1632 163 127
1633 163 129
1634 163 13
1635 163 131
1636 163 134
1637 163 136
1638 163 138
1639 163 139
1640 163 15
1641 163 152
1642 163 153
1643 163 157
1644 163 158
1645 163 162
1646 163 163
1647 163 168
1648 163 17
1649 163 18
1650 163 189
1651 163 19
1652 163 191
1653 163 192
1654 163 195
1655 163 196
1656 163 199
1657 163 200
1658 163 203
1659 163 204
1660 163 213
1661 163 214
1662 163 217
1663 163 22
1664 163 223
1665 163 225
1666 163 226
1667 163 228
1668 163 23
1669 163 231
1670 163 232
1671 163 233
1672 163 239
1673 163 241
1674 163 242
1675 163 244
1676 163 246
1677 163 27
1678 163 28
1679 163 31
1680 163 32
1681 163 33
1682 163 38
1683 163 40
1684 163 63
1685 163 64
1686 163 74
1687 163 75
1688 163 77
1689 163 89
1690 163 90
1691 163 91
1692 163 92
1693 164 155
1694 164 25
1695 164 78
1696 166 116
1697 166 119
1698 166 124
1699 166 127
1700 166 130
1701 166 134
1702 166 136
1703 166 142
1704 166 144
1705 166 148
1706 166 177
1707 166 181
1708 166 186
1709 166 192
1710 166 196
1711 166 200
1712 166 205
1713 166 229
1714 166 242
1715 166 245
1716 166 247
1717 166 8
1718 169 120
1719 169 178
1720 169 189
1721 169 239
1722 170 108
1723 170 117
1724 170 120
1725 170 125
1726 170 128
1727 170 189
1728 170 192
1729 170 196
1730 170 200
1731 170 206
1732 170 230
1733 170 239
1734 170 242
1735 171 115
1736 171 117
1737 171 121
1738 171 123
1739 171 125
1740 171 128
1741 171 133
1742 171 170
1743 171 190
1744 171 194
1745 171 198
1746 171 202
1747 171 204
1748 171 228
1749 171 240
1750 171 244
1751 171 246
1752 172 108
1753 172 115
1754 172 117
1755 172 120
1756 172 123
1757 172 125
1758 172 128
1759 172 133
1760 172 141
1761 172 146
1762 172 176
1763 172 189
1764 172 204
1765 172 206
1766 172 228
1767 172 234
1768 172 239
1769 172 244
1770 172 246
1771 172 42
1772 173 5
1773 175 0
1774 175 253
1775 176 116
1776 176 122
1777 176 124
1778 176 134
1779 176 136
1780 176 142
1781 176 144
1782 176 177
1783 176 181
1784 176 186
1785 176 191
1786 176 195
1787 176 199
1788 176 203
1789 176 205
1790 176 229
1791 176 241
1792 176 245
1793 176 247
1794 176 8
1795 178 11
1796 178 12
1797 178 13
1798 178 139
1799 178 15
1800 178 152
1801 178 158
1802 178 168
1803 178 18
1804 178 19
1805 178 214
1806 178 22
1807 178 220
1808 178 224
1809 178 28
1810 178 31
1811 178 38
1812 178 40
1813 178 63
1814 178 89
1815 178 91
1816 179 156
1817 179 162
1818 179 212
1819 179 221
1820 179 225
1821 179 26
1822 179 32
1823 179 62
1824 179 73
1825 179 79
1826 179 92
1827 184 253
1828 186 103
1829 186 105
1830 186 109
1831 186 110
1832 186 111
1833 186 114
1834 186 118
1835 186 120
1836 186 144
1837 186 145
1838 186 155
1839 186 156
1840 186 158
1841 186 170
1842 186 171
1843 186 172
1844 186 173
1845 186 18
1846 186 19
1847 186 197
1848 186 199
1849 186 201
1850 186 203
1851 186 205
1852 186 207
1853 186 209
1854 186 211
1855 186 213
1856 186 214
1857 186 215
1858 186 220
1859 186 221
1860 186 224
1861 186 226
1862 186 229
1863 186 23
1864 186 231
1865 186 233
1866 186 235
1867 186 236
1868 186 237
1869 186 238
1870 186 24
1871 186 241
1872 186 243
1873 186 245
1874 186 246
1875 186 27
1876 186 28
1877 186 29
1878 186 34
1879 186 41
1880 186 42
1881 186 46
1882 186 47
1883 186 50
1884 186 51
1885 186 52
1886 186 57
1887 186 66
1888 186 67
1889 186 71
1890 186 72
1891 186 75
1892 186 76
1893 186 77
1894 186 82
1895 186 84
1896 186 86
1897 186 88
1898 186 90
1899 186 92
1900 186 94
1901 186 99
1902 187 159
1903 187 21
1904 187 44
1905 187 69
1906 189 102
1907 189 104
1908 189 108
1909 189 114
1910 189 116
1911 189 118
1912 189 120
1913 189 122
1914 189 198
1915 189 202
1916 189 206
1917 189 210
1918 189 216
1919 189 225
1920 189 230
1921 189 234
1922 189 242
1923 189 87
1924 189 89
1925 189 97
1926 192 213
1927 192 90
1928 192 93
1929 192 98
1930 193 105
1931 193 189
1932 193 196
1933 193 213
1934 193 223
1935 193 228
1936 193 240
1937 193 90
1938 193 93
1939 193 98
1940 194 103
1941 194 105
1942 194 113
1943 194 117
1944 194 196
1945 194 213
1946 194 223
1947 194 228
1948 194 233
1949 194 240
1950 194 59
1951 194 86
1952 194 88
1953 194 91
1954 194 93
1955 194 98
1956 195 103
1957 195 105
1958 195 113
1959 195 117
1960 195 123
1961 195 189
1962 195 196
1963 195 213
1964 195 223
1965 195 228
1966 195 233
1967 195 240
1968 195 36
1969 195 6
1970 195 86
1971 195 88
1972 195 90
1973 195 93
1974 195 98
1975 196 105
1976 196 93
1977 196 98
1978 199 104
1979 199 108
1980 199 114
1981 199 116
1982 199 118
1983 199 120
1984 199 122
1985 199 216
1986 199 234
1987 199 87
1988 199 89
1989 199 92
1990 201 110
1991 201 111
1992 201 144
1993 201 170
1994 201 172
1995 201 18
1996 201 220
1997 201 221
1998 201 236
1999 201 237
2000 201 238
2001 201 24
2002 201 246
2003 201 27
2004 201 34
2005 201 41
2006 201 47
2007 201 50
2008 201 57
2009 201 66
2010 201 72
2011 201 75
2012 201 82
2013 201 84
2014 202 100
2015 202 101
2016 202 106
2017 202 107
2018 202 143
2019 202 154
2020 202 160
2021 202 173
2022 202 22
2023 202 28
2024 202 45
2025 202 51
2026 202 70
2027 202 76
2028 202 95
2029 202 96
2030 209 100
2031 209 138
2032 209 176
2033 209 214
2034 209 221
2035 209 24
2036 209 62
EOF
